c File: data_files/evolved_graphs/g3639.col
c
c Auto generated graph
c
p edge 100 1675
e 1 2
e 1 3
e 1 4
e 1 5
e 1 8
e 1 9
e 1 10
e 1 12
e 1 14
e 1 19
e 1 21
e 1 22
e 1 26
e 1 27
e 1 28
e 1 30
e 1 41
e 1 50
e 1 63
e 1 66
e 1 69
e 1 71
e 1 72
e 1 73
e 1 74
e 1 76
e 1 78
e 1 80
e 1 81
e 1 82
e 1 83
e 1 86
e 1 87
e 1 88
e 1 89
e 1 90
e 1 91
e 1 92
e 1 93
e 1 94
e 1 96
e 1 98
e 1 99
e 1 100
e 2 3
e 2 4
e 2 5
e 2 7
e 2 8
e 2 10
e 2 12
e 2 13
e 2 16
e 2 18
e 2 19
e 2 20
e 2 22
e 2 23
e 2 24
e 2 25
e 2 26
e 2 39
e 2 54
e 2 69
e 2 70
e 2 71
e 2 72
e 2 74
e 2 77
e 2 78
e 2 79
e 2 81
e 2 82
e 2 90
e 2 91
e 2 92
e 2 93
e 2 94
e 2 95
e 2 97
e 2 100
e 3 4
e 3 6
e 3 7
e 3 9
e 3 12
e 3 13
e 3 14
e 3 15
e 3 17
e 3 20
e 3 21
e 3 22
e 3 24
e 3 25
e 3 29
e 3 34
e 3 39
e 3 41
e 3 43
e 3 64
e 3 70
e 3 72
e 3 74
e 3 75
e 3 79
e 3 80
e 3 82
e 3 83
e 3 87
e 3 88
e 3 89
e 3 90
e 3 91
e 3 92
e 3 94
e 3 95
e 3 98
e 3 99
e 3 100
e 4 5
e 4 6
e 4 7
e 4 8
e 4 11
e 4 12
e 4 13
e 4 14
e 4 16
e 4 18
e 4 19
e 4 20
e 4 21
e 4 24
e 4 26
e 4 27
e 4 29
e 4 30
e 4 57
e 4 69
e 4 71
e 4 72
e 4 73
e 4 80
e 4 82
e 4 83
e 4 84
e 4 86
e 4 88
e 4 89
e 4 90
e 4 91
e 4 92
e 4 93
e 4 95
e 4 96
e 4 97
e 4 98
e 4 100
e 5 6
e 5 7
e 5 8
e 5 9
e 5 15
e 5 16
e 5 17
e 5 18
e 5 23
e 5 24
e 5 25
e 5 27
e 5 29
e 5 32
e 5 38
e 5 49
e 5 53
e 5 66
e 5 69
e 5 70
e 5 71
e 5 72
e 5 73
e 5 74
e 5 75
e 5 76
e 5 79
e 5 81
e 5 82
e 5 86
e 5 89
e 5 92
e 5 94
e 5 95
e 5 97
e 5 98
e 6 7
e 6 8
e 6 9
e 6 10
e 6 11
e 6 12
e 6 16
e 6 17
e 6 18
e 6 19
e 6 20
e 6 21
e 6 23
e 6 26
e 6 27
e 6 29
e 6 44
e 6 52
e 6 56
e 6 57
e 6 66
e 6 69
e 6 70
e 6 72
e 6 73
e 6 74
e 6 75
e 6 76
e 6 77
e 6 80
e 6 81
e 6 82
e 6 84
e 6 85
e 6 88
e 6 90
e 6 91
e 6 96
e 6 98
e 6 99
e 6 100
e 7 8
e 7 9
e 7 12
e 7 13
e 7 14
e 7 15
e 7 16
e 7 20
e 7 21
e 7 22
e 7 24
e 7 25
e 7 26
e 7 30
e 7 42
e 7 57
e 7 62
e 7 63
e 7 69
e 7 71
e 7 72
e 7 74
e 7 75
e 7 76
e 7 79
e 7 81
e 7 82
e 7 83
e 7 85
e 7 87
e 7 88
e 7 89
e 7 90
e 7 94
e 7 95
e 7 97
e 7 98
e 7 99
e 7 100
e 8 9
e 8 10
e 8 11
e 8 13
e 8 14
e 8 15
e 8 16
e 8 17
e 8 18
e 8 19
e 8 20
e 8 21
e 8 22
e 8 23
e 8 25
e 8 26
e 8 30
e 8 33
e 8 38
e 8 42
e 8 51
e 8 58
e 8 61
e 8 68
e 8 71
e 8 73
e 8 75
e 8 76
e 8 78
e 8 79
e 8 83
e 8 85
e 8 86
e 8 87
e 8 88
e 8 89
e 8 90
e 8 91
e 8 92
e 8 94
e 8 97
e 8 99
e 9 11
e 9 12
e 9 13
e 9 14
e 9 15
e 9 16
e 9 19
e 9 20
e 9 21
e 9 23
e 9 27
e 9 28
e 9 30
e 9 36
e 9 48
e 9 52
e 9 55
e 9 69
e 9 70
e 9 71
e 9 72
e 9 74
e 9 75
e 9 76
e 9 77
e 9 78
e 9 79
e 9 80
e 9 82
e 9 84
e 9 85
e 9 87
e 9 88
e 9 89
e 9 90
e 9 91
e 9 93
e 9 94
e 9 95
e 9 96
e 9 97
e 9 100
e 10 12
e 10 14
e 10 15
e 10 16
e 10 18
e 10 19
e 10 22
e 10 24
e 10 25
e 10 26
e 10 27
e 10 28
e 10 29
e 10 30
e 10 35
e 10 44
e 10 45
e 10 53
e 10 58
e 10 61
e 10 63
e 10 70
e 10 72
e 10 73
e 10 74
e 10 75
e 10 76
e 10 78
e 10 79
e 10 80
e 10 81
e 10 83
e 10 84
e 10 86
e 10 87
e 10 88
e 10 89
e 10 90
e 10 91
e 10 92
e 10 94
e 10 95
e 10 96
e 10 100
e 11 15
e 11 17
e 11 19
e 11 23
e 11 24
e 11 25
e 11 27
e 11 29
e 11 37
e 11 38
e 11 47
e 11 51
e 11 63
e 11 68
e 11 73
e 11 75
e 11 76
e 11 77
e 11 78
e 11 79
e 11 81
e 11 82
e 11 85
e 11 86
e 11 87
e 11 88
e 11 89
e 11 93
e 11 96
e 11 98
e 11 100
e 12 14
e 12 16
e 12 17
e 12 19
e 12 21
e 12 22
e 12 23
e 12 25
e 12 26
e 12 27
e 12 29
e 12 38
e 12 40
e 12 49
e 12 50
e 12 54
e 12 62
e 12 64
e 12 67
e 12 72
e 12 75
e 12 76
e 12 82
e 12 85
e 12 91
e 12 92
e 12 93
e 12 95
e 12 96
e 13 15
e 13 16
e 13 18
e 13 19
e 13 23
e 13 24
e 13 25
e 13 26
e 13 27
e 13 30
e 13 31
e 13 50
e 13 69
e 13 74
e 13 77
e 13 82
e 13 83
e 13 94
e 13 96
e 13 97
e 13 98
e 14 15
e 14 16
e 14 17
e 14 18
e 14 20
e 14 21
e 14 23
e 14 29
e 14 30
e 14 32
e 14 34
e 14 35
e 14 47
e 14 49
e 14 55
e 14 58
e 14 71
e 14 72
e 14 82
e 14 84
e 14 88
e 14 89
e 14 95
e 14 100
e 15 16
e 15 19
e 15 20
e 15 21
e 15 22
e 15 23
e 15 25
e 15 28
e 15 36
e 15 39
e 15 41
e 15 44
e 15 45
e 15 49
e 15 50
e 15 56
e 15 69
e 15 75
e 15 78
e 15 79
e 15 80
e 15 89
e 15 96
e 16 17
e 16 18
e 16 19
e 16 21
e 16 25
e 16 26
e 16 27
e 16 28
e 16 30
e 16 47
e 16 52
e 16 66
e 16 73
e 16 74
e 16 76
e 16 80
e 16 81
e 16 82
e 16 84
e 16 94
e 16 95
e 17 18
e 17 19
e 17 20
e 17 24
e 17 38
e 17 53
e 17 61
e 17 64
e 17 72
e 17 77
e 17 82
e 17 88
e 17 92
e 17 93
e 17 99
e 18 19
e 18 23
e 18 24
e 18 25
e 18 28
e 18 29
e 18 30
e 18 33
e 18 40
e 18 43
e 18 44
e 18 50
e 18 59
e 18 68
e 18 88
e 19 21
e 19 22
e 19 23
e 19 25
e 19 26
e 19 27
e 19 28
e 19 36
e 19 38
e 19 60
e 19 63
e 19 64
e 20 22
e 20 24
e 20 25
e 20 27
e 20 30
e 20 45
e 20 51
e 20 53
e 20 63
e 21 22
e 21 23
e 21 25
e 21 26
e 21 37
e 21 38
e 21 39
e 21 43
e 21 50
e 21 59
e 21 65
e 21 77
e 21 78
e 21 80
e 21 87
e 22 23
e 22 25
e 22 26
e 22 27
e 22 28
e 22 29
e 22 40
e 22 58
e 22 79
e 23 26
e 23 29
e 23 33
e 23 36
e 23 37
e 23 41
e 23 46
e 23 47
e 23 54
e 23 56
e 23 57
e 23 58
e 23 68
e 24 27
e 24 29
e 24 30
e 24 33
e 24 34
e 24 39
e 24 41
e 24 43
e 24 47
e 24 57
e 24 58
e 24 59
e 24 61
e 24 64
e 24 68
e 24 75
e 24 79
e 25 26
e 25 29
e 25 30
e 25 36
e 25 43
e 25 51
e 25 53
e 25 57
e 25 64
e 25 90
e 26 27
e 26 28
e 26 30
e 26 32
e 26 34
e 26 35
e 26 36
e 26 39
e 26 49
e 26 51
e 26 56
e 26 77
e 26 90
e 27 36
e 27 38
e 27 40
e 27 47
e 27 49
e 27 63
e 27 64
e 28 30
e 28 33
e 28 35
e 28 38
e 28 41
e 28 54
e 28 55
e 28 65
e 28 71
e 28 85
e 28 93
e 29 36
e 29 38
e 29 49
e 29 52
e 29 54
e 29 67
e 29 70
e 29 90
e 29 99
e 30 34
e 30 39
e 30 41
e 30 44
e 30 63
e 30 64
e 30 65
e 30 77
e 30 81
e 30 98
e 30 100
e 31 36
e 31 39
e 31 50
e 31 55
e 31 56
e 31 57
e 31 62
e 31 66
e 31 78
e 32 56
e 32 64
e 33 36
e 33 52
e 33 55
e 33 64
e 33 67
e 33 92
e 34 35
e 34 38
e 34 39
e 34 41
e 34 44
e 34 46
e 34 49
e 34 51
e 34 52
e 34 55
e 34 57
e 34 61
e 34 62
e 34 64
e 34 65
e 34 68
e 35 36
e 35 39
e 35 40
e 35 41
e 35 42
e 35 44
e 35 45
e 35 51
e 35 53
e 35 57
e 35 58
e 35 62
e 35 63
e 35 65
e 35 67
e 35 78
e 36 38
e 36 40
e 36 43
e 36 45
e 36 47
e 36 48
e 36 50
e 36 51
e 36 52
e 36 54
e 36 57
e 36 58
e 36 59
e 36 61
e 36 65
e 36 66
e 36 74
e 36 88
e 36 90
e 37 38
e 37 39
e 37 40
e 37 41
e 37 45
e 37 46
e 37 47
e 37 48
e 37 50
e 37 52
e 37 53
e 37 54
e 37 55
e 37 58
e 37 62
e 37 63
e 37 64
e 37 66
e 37 67
e 37 68
e 38 39
e 38 40
e 38 42
e 38 46
e 38 52
e 38 53
e 38 54
e 38 55
e 38 56
e 38 57
e 38 58
e 38 59
e 38 62
e 38 64
e 38 66
e 38 67
e 38 74
e 38 85
e 38 95
e 39 43
e 39 44
e 39 46
e 39 47
e 39 49
e 39 50
e 39 51
e 39 53
e 39 57
e 39 58
e 39 64
e 39 65
e 39 66
e 39 67
e 39 76
e 39 90
e 39 93
e 40 41
e 40 42
e 40 44
e 40 46
e 40 47
e 40 51
e 40 52
e 40 53
e 40 56
e 40 58
e 40 59
e 40 60
e 40 61
e 40 62
e 40 65
e 40 66
e 40 67
e 41 42
e 41 44
e 41 45
e 41 46
e 41 47
e 41 49
e 41 50
e 41 54
e 41 55
e 41 56
e 41 58
e 41 59
e 41 60
e 41 62
e 41 63
e 41 64
e 41 66
e 41 67
e 41 68
e 41 80
e 41 95
e 42 44
e 42 45
e 42 47
e 42 48
e 42 49
e 42 55
e 42 57
e 42 59
e 42 60
e 42 61
e 42 62
e 42 63
e 42 66
e 42 67
e 42 68
e 43 48
e 43 49
e 43 50
e 43 51
e 43 52
e 43 55
e 43 60
e 43 61
e 43 62
e 43 63
e 43 64
e 43 65
e 43 67
e 43 68
e 44 45
e 44 46
e 44 48
e 44 50
e 44 53
e 44 55
e 44 56
e 44 57
e 44 59
e 44 62
e 44 63
e 44 64
e 44 66
e 44 77
e 44 95
e 45 48
e 45 50
e 45 51
e 45 54
e 45 56
e 45 59
e 45 63
e 45 64
e 45 65
e 45 66
e 45 67
e 45 99
e 46 49
e 46 50
e 46 52
e 46 55
e 46 58
e 46 59
e 46 60
e 46 63
e 46 67
e 46 68
e 47 48
e 47 49
e 47 52
e 47 53
e 47 55
e 47 56
e 47 57
e 47 58
e 47 59
e 47 61
e 47 62
e 47 66
e 47 68
e 47 85
e 48 49
e 48 51
e 48 55
e 48 57
e 48 58
e 48 59
e 48 60
e 48 62
e 48 63
e 48 67
e 48 68
e 48 88
e 49 50
e 49 51
e 49 54
e 49 57
e 49 58
e 49 59
e 49 60
e 49 61
e 49 62
e 49 63
e 50 52
e 50 56
e 50 57
e 50 58
e 50 59
e 50 62
e 50 63
e 50 66
e 50 67
e 50 68
e 50 71
e 50 74
e 50 77
e 51 52
e 51 57
e 51 59
e 51 61
e 51 62
e 51 63
e 51 65
e 51 66
e 51 68
e 51 69
e 51 70
e 51 83
e 51 98
e 52 55
e 52 56
e 52 57
e 52 58
e 52 59
e 52 60
e 52 62
e 52 63
e 52 64
e 52 66
e 52 67
e 53 54
e 53 55
e 53 56
e 53 57
e 53 63
e 53 65
e 53 69
e 53 70
e 53 71
e 53 72
e 53 73
e 53 74
e 53 75
e 53 78
e 53 79
e 53 80
e 53 81
e 53 82
e 53 83
e 53 85
e 53 86
e 53 87
e 53 90
e 53 94
e 53 95
e 53 96
e 53 97
e 53 100
e 54 55
e 54 56
e 54 57
e 54 58
e 54 59
e 54 64
e 54 65
e 54 67
e 54 68
e 54 74
e 54 75
e 54 76
e 54 77
e 54 78
e 54 80
e 54 81
e 54 84
e 54 85
e 54 86
e 54 87
e 54 89
e 54 90
e 54 91
e 54 94
e 54 96
e 54 97
e 54 98
e 54 100
e 55 57
e 55 59
e 55 61
e 55 62
e 55 63
e 55 67
e 55 69
e 55 70
e 55 72
e 55 74
e 55 75
e 55 76
e 55 77
e 55 79
e 55 81
e 55 83
e 55 87
e 55 89
e 55 90
e 55 91
e 55 92
e 55 93
e 55 94
e 55 95
e 55 96
e 55 98
e 55 99
e 56 57
e 56 62
e 56 63
e 56 64
e 56 68
e 56 69
e 56 71
e 56 72
e 56 73
e 56 77
e 56 78
e 56 79
e 56 80
e 56 82
e 56 85
e 56 86
e 56 87
e 56 88
e 56 89
e 56 93
e 56 94
e 56 95
e 56 97
e 56 98
e 56 99
e 56 100
e 57 58
e 57 61
e 57 63
e 57 64
e 57 67
e 57 69
e 57 71
e 57 73
e 57 74
e 57 75
e 57 77
e 57 78
e 57 79
e 57 81
e 57 82
e 57 83
e 57 84
e 57 85
e 57 87
e 57 89
e 57 90
e 57 91
e 57 92
e 57 93
e 57 94
e 57 95
e 57 97
e 57 99
e 58 61
e 58 62
e 58 63
e 58 65
e 58 70
e 58 72
e 58 73
e 58 77
e 58 79
e 58 80
e 58 82
e 58 86
e 58 87
e 58 88
e 58 89
e 58 91
e 58 92
e 58 93
e 58 94
e 58 97
e 58 100
e 59 60
e 59 64
e 59 66
e 59 67
e 59 68
e 59 69
e 59 70
e 59 71
e 59 73
e 59 74
e 59 75
e 59 77
e 59 78
e 59 79
e 59 81
e 59 82
e 59 83
e 59 85
e 59 88
e 59 89
e 59 90
e 59 91
e 59 92
e 59 96
e 59 97
e 59 98
e 59 99
e 59 100
e 60 64
e 60 66
e 60 67
e 60 68
e 60 69
e 60 70
e 60 71
e 60 72
e 60 75
e 60 76
e 60 77
e 60 78
e 60 79
e 60 80
e 60 81
e 60 82
e 60 83
e 60 85
e 60 87
e 60 91
e 60 94
e 60 95
e 60 97
e 60 98
e 60 99
e 61 66
e 61 67
e 61 68
e 61 69
e 61 71
e 61 72
e 61 73
e 61 74
e 61 76
e 61 77
e 61 78
e 61 79
e 61 81
e 61 82
e 61 84
e 61 88
e 61 90
e 61 91
e 61 92
e 61 93
e 61 95
e 61 96
e 61 97
e 61 98
e 61 99
e 61 100
e 62 65
e 62 66
e 62 69
e 62 73
e 62 74
e 62 75
e 62 76
e 62 77
e 62 79
e 62 80
e 62 81
e 62 82
e 62 83
e 62 84
e 62 85
e 62 86
e 62 87
e 62 88
e 62 89
e 62 90
e 62 91
e 62 96
e 62 98
e 62 99
e 63 65
e 63 66
e 63 69
e 63 71
e 63 72
e 63 73
e 63 74
e 63 76
e 63 77
e 63 82
e 63 83
e 63 84
e 63 85
e 63 86
e 63 87
e 63 91
e 63 92
e 63 93
e 63 94
e 63 95
e 63 97
e 63 98
e 64 66
e 64 68
e 64 69
e 64 70
e 64 71
e 64 75
e 64 77
e 64 80
e 64 81
e 64 84
e 64 85
e 64 88
e 64 89
e 64 91
e 64 94
e 64 95
e 64 99
e 65 70
e 65 72
e 65 73
e 65 75
e 65 78
e 65 79
e 65 80
e 65 81
e 65 82
e 65 83
e 65 84
e 65 87
e 65 88
e 65 89
e 65 91
e 65 94
e 65 96
e 65 97
e 65 98
e 65 99
e 66 68
e 66 70
e 66 71
e 66 72
e 66 73
e 66 75
e 66 77
e 66 79
e 66 80
e 66 81
e 66 82
e 66 83
e 66 84
e 66 85
e 66 86
e 66 87
e 66 88
e 66 89
e 66 90
e 66 91
e 66 92
e 66 95
e 66 96
e 66 97
e 66 98
e 67 69
e 67 71
e 67 72
e 67 73
e 67 74
e 67 75
e 67 77
e 67 79
e 67 80
e 67 81
e 67 82
e 67 83
e 67 84
e 67 85
e 67 86
e 67 88
e 67 93
e 67 95
e 67 96
e 67 97
e 67 99
e 67 100
e 68 69
e 68 70
e 68 71
e 68 73
e 68 75
e 68 76
e 68 77
e 68 78
e 68 80
e 68 82
e 68 83
e 68 84
e 68 85
e 68 87
e 68 88
e 68 89
e 68 90
e 68 92
e 68 93
e 68 95
e 68 96
e 68 99
e 69 70
e 69 71
e 69 72
e 69 73
e 69 75
e 69 77
e 69 79
e 69 80
e 69 82
e 69 83
e 69 86
e 69 89
e 69 93
e 69 94
e 69 98
e 69 99
e 69 100
e 70 72
e 70 74
e 70 76
e 70 77
e 70 78
e 70 85
e 70 86
e 70 89
e 70 90
e 70 92
e 70 93
e 70 94
e 70 95
e 70 96
e 70 97
e 70 99
e 70 100
e 71 72
e 71 73
e 71 76
e 71 77
e 71 78
e 71 80
e 71 81
e 71 82
e 71 86
e 71 87
e 71 89
e 71 90
e 71 91
e 71 92
e 71 94
e 71 98
e 72 73
e 72 74
e 72 75
e 72 77
e 72 79
e 72 81
e 72 83
e 72 84
e 72 85
e 72 87
e 72 88
e 72 89
e 72 90
e 72 91
e 72 92
e 72 93
e 72 94
e 72 96
e 72 98
e 72 99
e 73 77
e 73 86
e 73 90
e 73 91
e 73 92
e 73 93
e 73 94
e 73 97
e 73 98
e 74 75
e 74 77
e 74 78
e 74 81
e 74 82
e 74 83
e 74 85
e 74 87
e 74 96
e 74 99
e 74 100
e 75 76
e 75 80
e 75 81
e 75 82
e 75 83
e 75 84
e 75 87
e 75 88
e 75 92
e 75 94
e 75 98
e 75 99
e 75 100
e 76 77
e 76 80
e 76 83
e 76 84
e 76 85
e 76 87
e 76 88
e 76 89
e 76 90
e 76 91
e 76 93
e 76 95
e 76 97
e 76 99
e 76 100
e 77 78
e 77 79
e 77 80
e 77 81
e 77 82
e 77 84
e 77 85
e 77 87
e 77 89
e 77 91
e 77 94
e 77 96
e 77 99
e 77 100
e 78 80
e 78 81
e 78 85
e 78 87
e 78 90
e 78 91
e 78 92
e 78 93
e 78 94
e 78 97
e 78 99
e 78 100
e 79 80
e 79 82
e 79 83
e 79 84
e 79 86
e 79 88
e 79 89
e 79 90
e 79 91
e 79 93
e 79 98
e 79 99
e 80 81
e 80 82
e 80 83
e 80 84
e 80 85
e 80 86
e 80 87
e 80 88
e 80 93
e 80 94
e 80 95
e 80 96
e 80 98
e 81 82
e 81 88
e 81 89
e 81 91
e 81 94
e 81 95
e 81 96
e 81 100
e 82 84
e 82 85
e 82 86
e 82 87
e 82 88
e 82 94
e 82 95
e 82 96
e 82 99
e 83 84
e 83 86
e 83 87
e 83 88
e 83 89
e 83 90
e 83 91
e 83 92
e 83 93
e 83 96
e 83 98
e 84 85
e 84 87
e 84 88
e 84 89
e 84 96
e 84 97
e 84 98
e 84 99
e 84 100
e 85 86
e 85 88
e 85 90
e 85 92
e 85 94
e 85 96
e 85 97
e 85 100
e 86 87
e 86 88
e 86 89
e 86 93
e 86 94
e 86 95
e 86 97
e 86 99
e 87 92
e 87 94
e 87 95
e 87 98
e 87 99
e 88 90
e 88 94
e 88 97
e 88 99
e 88 100
e 89 92
e 89 95
e 89 96
e 89 97
e 89 98
e 89 99
e 89 100
e 90 92
e 90 95
e 90 96
e 90 97
e 90 99
e 91 92
e 91 98
e 91 99
e 92 94
e 92 95
e 92 99
e 93 94
e 93 98
e 93 99
e 93 100
e 94 95
e 94 96
e 94 98
e 94 99
e 95 97
e 95 98
e 95 100
e 96 97
e 96 98
e 96 100
e 97 98
e 97 99
e 99 100
